53	12	4	21	
19	14	17	17

0	0	0	0	0	0	4	1	2	3	4
1	9	0	10	4	2	2	5	8
2	9	3	0	7	5	4	5	6	7	10
3	2	6	7	4	3	4	5	7	8	10
4	9	0	7	8	10	4	5	6	7	10
5	9	4	9	2	5	1	9
6	4	2	7	4	1	2	8	9
7	0	0	0	8	6	1	11
8	4	2	0	0	10	1	11
9	6	10	2	9	2	1	11
10	5	6	0	0	9	1	11
11	0	0	0	0	0	0
